\ENCODING=ISO-8859-1
\Problem name: IloCplex

Minimize
 obj: x1 + x2 + x3 + x4 + x5 + x6 + x7 + x8 + x9 + x10 + x11 + x12
      + 1000000000000 x13 + x14 + x15 + x16 + x17 + x18 + x19
      + 1000000000000 x20 + x21 + x22 + x23 + x24 + x25 + x26 + x27 + x28 + x29
      + x30 + x31 + x32 + x33 + x34 + x35 + x36 + x37 + x38 + x39 + x40 + x41
      + x42 + x43 + x44 + x45 + x46 + x47 + x48 + x49 + x50 + x51 + x52 + x53
      + x54 + x55 + x56 + x57 + x58 + x59 + x60 + x61 + x62 + x63 + x64 + x65
      + x66 + x67 + x68 + x69 + x70 + x71 + x72 + x73 + x74 + x75 + x76 + x77
      + x78 + x79 + x80 + x81 + x82 + x83 + x84 + x85 + x86 + x87 + x88 + x89
      + x90 + x91 + x92 + x93 + x94 + x95 + x96 + x97 + x98 + x99 + x100 + x101
      + x102 + x103 + x104 + x105 + x106 + x107 + x108 + x109 + x110 + x111
      + x112 + x113 + x114 + x115 + x116 + x117 + x118 + x119 + x120 + x121
      + x122 + x123 + x124 + x125 + x126 + x127 + x128 + x129 + x130 + x131
      + x132 + x133 + x134 + x135 + x136 + x137 + x138 + x139 + x140 + x141
      + x142 + x143 + x144 + x145 + x146 + x147 + x148 + x149 + x150 + x151
      + x152 + x153 + x154 + x155 + x156 + x157 + x158 + x159 + x160 + x161
      + x162 + x163 + x164 + x165 + x166 + x167 + x168 + x169 + x170 + x171
      + x172 + x173 + x174 + x175 + x176 + x177 + x178 + x179 + x180 + x181
      + x182 + x183 + x184 + x185 + x186 + x187 + x188 + x189 + x190 + x191
      + x192 + x193 + x194 + x195 + x196 + x197 + x198 + x199 + x200 + x201
      + x202 + x203 + x204 + x205 + x206 + x207 + x208 + x209 + x210 + x211
      + x212 + x213 + x214 + x215 + x216 + x217 + x218 + x219 + x220 + x221
      + x222 + x223 + x224 + x225 + x226 + x227 + x228 + x229 + x230 + x231
      + x232 + x233 + x234 + x235 + x236 + x237 + x238 + x239 + x240 + x241
      + x242 + x243 + x244 + x245 + x246 + x247 + x248 + x249 + x250 + x251
      + x252 + x253 + x254 + x255 + x256 + x257 + x258 + x259 + x260 + x261
      + x262 + x263 + x264 + x265 + x266 + x267 + x268 + x269 + x270 + x271
      + x272 + x273 + x274 + x275 + x276 + x277 + x278 + x279 + x280 + x281
      + x282 + x283 + x284 + x285 + x286 + x287 + x288 + x289 + x290 + x291
      + x292 + x293 + x294 + x295 + x296 + x297 + x298 + x299 + x300 + x301
      + x302 + x303 + x304 + x305 + x306 + x307 + x308 + x309 + x310 + x311
      + x312 + x313 + x314 + x315 + x316 + x317 + x318 + x319 + x320 + x321
      + x322 + x323 + x324 + x325 + x326 + x327 + x328 + x329 + x330 + x331
      + x332 + x333 + x334 + x335 + x336 + x337 + x338 + x339 + x340 + x341
      + x342 + x343 + x344 + x345 + x346 + x347 + x348 + x349 + x350 + x351
      + x352 + x353 + x354 + x355 + x356 + x357 + x358 + x359 + x360 + x361
      + x362 + x363 + x364 + x365 + x366 + x367 + x368 + x369 + x370 + x371
      + x372 + x373 + x374 + x375 + x376 + x377 + x378 + x379 + x380 + x381
      + x382 + x383 + x384 + x385 + x386 + x387 + x388 + x389 + x390 + x391
      + x392 + x393 + x394 + x395 + x396 + x397 + x398 + x399 + x400 + x401
      + x402 + x403 + x404 + x405 + x406 + x407 + x408 + x409 + x410 + x411
      + x412 + x413 + x414 + x415 + x416 + x417 + x418 + x419 + x420 + x421
      + x422 + x423 + x424 + x425 + x426 + x427 + x428 + x429 + x430 + x431
      + x432 + x433 + x434 + x435 + x436 + x437 + x438 + x439 + x440 + x441
      + x442 + x443 + x444 + x445 + x446 + x447 + x448 + x449 + x450 + x451
      + x452 + x453 + x454 + x455 + x456 + x457 + x458 + x459 + x460 + x461
      + x462 + x463 + x464 + x465 + x466 + x467 + x468 + x469 + x470 + x471
      + x472 + x473 + x474 + x475 + x476 + x477 + x478 + x479 + x480 + x481
      + x482 + x483 + x484 + x485 + x486 + x487 + x488 + x489 + x490 + x491
      + x492 + x493 + x494 + x495 + x496 + x497 + x498 + x499 + x500 + x501
      + x502 + x503 + x504 + x505 + x506 + x507 + x508 + x509 + x510 + x511
      + x512 + x513 + x514 + x515 + x516 + x517 + x518 + x519 + x520 + x521
      + x522 + x523 + x524 + x525 + x526 + x527 + x528 + x529 + x530 + x531
      + x532 + x533 + x534 + x535 + x536 + x537 + x538 + x539 + x540 + x541
      + x542 + x543 + x544 + x545 + x546 + x547 + x548 + x549 + x550 + x551
      + x552 + x553 + x554 + x555 + x556 + x557 + x558 + x559 + x560 + x561
      + x562 + x563 + x564 + x565 + x566 + x567 + x568 + x569 + x570 + x571
      + x572 + x573 + x574 + x575 + x576 + x577 + x578 + x579 + x580 + x581
      + x582 + x583 + x584 + x585 + x586 + x587 + x588 + x589 + x590 + x591
      + x592 + x593 + x594 + x595 + x596 + x597 + x598 + x599 + x600 + x601
      + x602 + x603 + x604 + x605 + x606 + x607 + x608 + x609 + x610 + x611
      + x612 + x613 + x614 + x615 + x616 + x617 + x618 + x619 + x620 + x621
      + x622 + x623 + x624 + x625 + x626 + x627 + x628 + x629 + x630 + x631
      + x632 + x633 + x634 + x635 + x636 + x637 + x638 + x639 + x640 + x641
      + x642 + x643 + x644 + x645 + x646 + x647 + x648 + x649 + x650 + x651
      + x652 + x653 + x654 + x655 + x656 + x657 + x658 + x659 + x660 + x661
      + x662 + x663 + x664 + x665 + x666 + x667 + x668 + x669 + x670 + x671
      + x672 + x673 + x674 + x675 + x676 + x677
Subject To
 c1:  x1 + x197 + x199 + x205 + x212 + x213 + x239 + x259 + x307 + x334 + x348
      + x359 + x365 + x368 + x374 + x378 + x389 + x391 + x423 + x432 + x443
      + x448 + x449 + x450 + x517 + x526 + x542 + x543 + x562 + x583 + x612
      + x629 + x630 + x631  = 1
 c2:  x2 + x193 + x194 + x220 + x221 + x228 + x252 + x289 + x329 + x335 + x343
      + x417 + x504 + x555 + x654  = 1
 c3:  x3 + x185 + x188 + x192 + x202 + x217 + x236 + x273 + x294 + x296 + x353
      + x356 + x427 + x439 + x440 + x457 + x499 + x506 + x515 + x530 + x546
      + x571 + x581 + x613 + x643 + x646  = 1
 c4:  x4 + x180 + x181 + x182 + x211 + x227 + x238 + x241 + x244 + x268 + x270
      + x278 + x347 + x369 + x403 + x407 + x410 + x454 + x456 + x458 + x459
      + x462 + x469 + x470 + x473 + x474 + x476 + x477 + x479 + x497 + x498
      + x501 + x512 + x521 + x527 + x528 + x574 + x580 + x594 + x634 + x635
      + x672 + x673 + x674 + x675 + x676 + x677  = 1
 c5:  x5 + x173 + x174 + x176 + x184 + x200 + x201 + x208 + x231 + x245 + x264
      + x265 + x274 + x323 + x354 + x431 - 1.96481719783037e-12 x442
      - 1.96481719783037e-12 x452 + 1.00000000000786 x481 + x489 + x557 + x586
      + x593 + x597 + x644 + x670 + x671  = 1
 c6:  x6 + x170 + x171 + x179 + x204 + x229 + x234 + x336 + x345 + x393 + x414
      + x441 + x442 + x444 + x452 + x486 + x488 + x550 + x551  = 1
 c7:  x7 + x163 + x165 + x167 + x190 + x196 + x249 + x250 + x257 + x293 + x321
      + x325 + x357 + x419 + x438 + x547 + x655 + x656 + x657 + x658  = 1
 c8:  x8 + x159 + x160 + x161 + x164 + x175 + x186 + x218 + x219 + x233 + x253
      + x261 + x300 + x309 + x338 + x408 + x433 + x455 + x464 + x468 + x480
      + x491 + x531 + x538 + x565  = 1
 c9:  x9 + x153 + x157 + x158 + x223 + x246 + x254 + x308 + x313 + x316 + x341
      + x363 + x384 + x406 + x411 + x413 + x425 + x428
      - 9.82408598915186e-12 x481 + x490 + x495 + x518 + x591 + x636 + x637
      + x638  = 1
 c10: x10 + x150 + x152 + x155 + x156 + x243 + x258 + x271 + x284 + x286 + x287
      + x291 + x295 + x310 + x311 + x326 + x333 + x337 + x352 + x364 + x366
      + x371 + x383 + x385 + x387 + x392 + x394 + x436 + x437 + x465 + x472
      + x493 + x539 + x619 + x620 + x621 + x622 + x623 + x624 + x625 + x626
      + x627 + x628 + x651 + x652 + x660 + x661 + x662 + x663 + x664 + x665
      + x667 + x668 + x669  = 1
 c11: x11 + x140 + x149 + x172 + x191 + x198 + x206 + x247 + x251 + x275 + x292
      + x297 + x304 + x332 + x339 + x360 + x373 + x382 + x390 + x395 + x404
      + x412 + x416 + x461 + 1.88293824976427e-13 x499 + x503 + x507 + x508
      + x510 + x516 + x519 + x520 + x522 + x524 + x529 + x532 + x533 + x534
      + x535 + x549 + x552 + x553 + x554 + x556 + x569 + x575 + x577 + x592
      + x639 + x640 + x650  = 1
 c12: x12 + x141 + x143 + x148 + x195 + x215 + x224 + x235 + x276 + x303 + x318
      + x344 + x367 + x372 + x381 + x388 + x460 + x466 + x471 + x514 + x544
      + x598 + x632 + x645  = 1
 c13: x13 + x136 + x137 + x168 + x187 + x207 + x225 + x260 + x266 + x281 + x283
      + x312 + x314 + x317 + x322 + x327 + x340 + x346 + x350 + x351 + x361
      + x376 + x397 + x398 + x399 + x400 + x401 + x402 + x418 + x422 + x426
      + x445 + x446 + x451 + x467 + x475 + x482 + x496 + x500 + x505 + x509
      + x525 + x548 + x561 + x568 + x572 + x576 + x578 + x584 + x587 + x588
      + x589 + x602 + x614 + x615 + x616 + x617 + x618 + x641 + x647 + x648
       = 1
 c14: x14 + x133 + x134 + x135 + x177 + x183 + x209 + x210 + x256 + x280 + x305
      + x306 + x315 + x330 + x358 + x362 + x377 + x396 + x487 + x502 + x513
      + x540 + x560 + x633 + x649 + x659  = 1
 c15: x15 + x125 + x132 + x138 + x142 + x158 + x224 + x237 + x240 + x261 + x298
      + x302 + x304 + x361 + x388 + x453 + x465 + x539 + x548 + x563  = 1
 c16: x16 + x124 + x125 + x127 + x139 + x151 + x154 + x169 + x203 + x234 + x250
      + x330 + x337 + x412 + x421 + x438 + x455 + x466 + x471 + x485 + x494
      + x495 + x518 + x559 + x576 + x587 + x589 + x595 + x596 + x598  = 1
 c17: x17 + x120 + x124 + x132 + x136 + x148 + x189 + x209 + x216 + x232 + x233
      + x242 + x243 + x319 + x320 + x322 + x324 + x325 + x332 + x344 + x345
      + x375 + x411 + x419 + x424 + x429 + x447 + x480 + x566 + x572 + x596
      + x601 + x633 + x652  = 1
 c18: x18 + x117 + x120 + x130 + x147 + x169 + x190 + x210 + x214 + x219 + x235
      + x249 + x251 + x262 + x299 + x305 + x308 + x310 + x336 + x377 + x379
      + x404 + x413 + x415 + x421 + x429 + x430 + x434 + x435 + x509 + x511
      + x545 + x561 + x568 + x579 + x585 + x599 + x607 + x608 + x609 + x627
      + x628 + x642  = 1
 c19: x19 + x112 + x117 + x131 + x149 + x162 + x187 + x196 + x204 + x258 + x267
      + x269 + x295 + x312 + x316 + x318 + x324 + x328 + x333 + x376 + x386
      + x396 + x415 + x441 + x464 + x468 + x494 + x538 + x588 + x610 + x611
      + x619 + x620 + x621 + x622 + x623 + x624 + x625 + x626 + x632 + x636
      + x637 + x638 + x639 + x640 + x666  = 1
 c20: x20 + x107 + x112 + x130 + x134 + x150 + x171 + x218 + x222 + x240 + x248
      + x255 + x260 + x263 + x265 + x299 + x315 + x349 + x405 + x420 + x437
      + x442 + x452 + x481 + x483  = 1
 c21: x21 + x107 + x108 + x123 + x127 + x128 + x129 + x133 + x144 + x145 + x166
      + x200 + x232 + x255 + x277 + x279 + x282 + x283 + x284 + x301 + x319
      + x331 + x338 + x342 + x354 + x364 + x379 + x387 + x393 + x484 + x485
      + x490 + x508 + x510 + x520 + x532 + x545 + x547 + x556 + x559 + x575
      + x592 + x641 + x659  = 1
 c22: x22 + x95 + x100 + x110 + x111 + x114 + x115 + x129 + x154 + x183 + x206
      + x216 + x222 + x226 + x245 + x257 + x276 + x288 + x290 + x292 + x302
      + x303 + x309 + x328 + x355 + x366 + x370 + x380 + x383 + x384 + x385
      + x406 + x409 + x414 + x418 + x426 + x463 + x467 + x478 + x511 + x523
      + x536 + x537 + x541 + x544 + x558 + x563 + x564 + x566 + x570 + x579
      + x605 + x642 + x650 + x655 + x656 + x657 + x658 + x670 + x671  = 1
 c23: x23 + x94 + x95 + x105 + x108 + x119 + x126 + x128 + x131 + x146 + x168
      + x177 + x178 + x179 + x182 + x236 + x248 + x280 + x285 + x301 + x323
      + x352 + x355 + x369 + x370 + x401 + x402 + x405 + x409 + x420 + x436
      + x472 + x478 + x492 + x503 + x514 + x525 + x567 + x582 + x649 + x653
       = 1
 c24: x24 + x88 + x91 + x94 + x102 + x104 + x109 + x115 + x153 + x166 + x178
      + x186 + x203 + x225 + x262 + x267 + x270 + x272 + x277 + x285 + x294
      + x342 + x349 + x358 + x362 + x375 + x408 + x447 + x516 + x523 + x536
      + x537 + x541 + x553 + x558 + x564 + x569 + x570 + x603 + x606 + x634
      + x635 + x653  = 1
 c25: x25 + x88 + x91 + x92 + x97 + x98 + x100 + x122 + x142 + x143 + x170
      + x191 + x193 + x213 + x227 + x242 + x282 + x285 + x289 + x311 + x313
      + x348 + x363 + x367 + x372 + x380 + x381 + x382 + x386 + x390 + x394
      + x398 + x400 + x403 + x422 + x430 + x440 + x445 + x446 + x453 + x457
      + x463 - 3.92963439566074e-12 x464 + x475 + x483 + x484 + x487
      + 0.999999999993311 x488 + x492 + x493 + x499 + x585 + x593 + x599 + x600
      + x601 + x602 + x610 + x611  = 1
 c26: x26 + x82 + x88 + x90 + x102 + x103 + x105 + x113 + x119 + x121 + x122
      + x135 + x151 + x152 + x189 + x195 + x214 + x223 + x230 + x286 + x298
      + x343 + x360 + x365 + x368 + x380 + x416 + x417 + x460 + x461 + x463
      + x470 + x482 + x483 + x484 + x496 + x512 + x515 + x521 + x524 + x527
      + x528 + x530 + x533 + x550 + x551 + x571 + x580 + x594 + x595 + x597
       = 1
 c27: x27 + x82 + x85 + x86 + x91 + x96 + x99 + x116 + x118 + x121 + x141
      + x151 + x156 + x202 + x221 + x230 + x254 + x263
      - 3.2673863614706e-13 x267 + x272 + x273 + x275 + x279 + x281 + x297
      + x298 + x300 + x306 + x331 + x342 + x346 + x349 + x374 + x391 + x425
      + x444 + x453 + x458 + x477 + x526 + x537 + x542 + x584 + x590 + x667
      + x668 + x669  = 1
 c28: x28 + x77 + x79 + x81 + x82 + x83 + x92 + x93 + x99 + x101 + x103 + x106
      + x111 + x146 + x162 + x163 + x175 + x178 + x181 + x185 + x197 + x198
      + x226 + x230 + x231 + x244 + x256 + x267 + x269 + x274 + x288 + x291
      + x317 + x327 + x339 + x341 + x370 + x373 + x428 + x431 + x435 + x448
      + x449 + x478 + x491 + x546 + x558 + x573 + x574 + x577 + x614 + x615
      + x616 + x617 + x618 + x645 + x666  = 1
 c29: x29 + x67 + x73 + x75 + x76 + x81 + x84 + x85 + x93 + x97 + x115 + x144
      + x157 + x160 + x172 + x201 + x207 + x253 + x262 + x287 + x301 + x320
      + x321 + x353 + x420 + x424 + x432 + x434 - 4.83647310235168e-12 x438
      + x447 + x456 + x459 + x474 + x492 + x502 + x517 + x523 + x529 + x534
      + x549 + x554 + x557 + x562 + x565 + x567 + x573 + x582 + x590 + x595
      + x611 + x647 + x648 + x651  = 1
 c30: x30 + x75 + x76 + x78 + x89 + x98 + x99 + x109 + x138 + x145 + x146
      + x155 + x162 + x167 + x176 + x199 + x203 + x266 + x277 + x290 + x320
      + x331 + x340 + x351 + x356 + x397 + x399 + x405 + x439 + x473 + x479
      + x501 + x505 + x507 + x540 + x564 + x570 + x573 + x581 + x582 + x600
      + x603 + x604 + x605 + x606 + x607 + x608 + x609 + x610 + x660 + x661
      + x662 + x663 + x664 + x665 + x666  = 1
 c31: x31 + x77 + x78 + x79 + x80 + x81 + x85 + x87 + x100 + x104 + x106 + x118
      + x123 + x140 + x145 + x161 + x184 + x188 + x217 + x226 + x241 + x246
      + x248 + x256 + x272 + x314 + x347 + x357 + x371 + x375 + x392 + x424
      + x434 + x450 + x489 + x502 + x513 + x522 + x540 + x541 + x543 + x552
      + x560 + x573 + x583 + x585 + x586 + x590 + x591 + x604 + x607  = 1
 c32: x32 + x70 + x72 + x73 + x74 + x75 + x79 + x86 + x101 + x111 + x116 + x119
      + x123 + x137 + x139 + x142 + x159 + x180 + x192 + x207 + x212 + x237
      + x242 + x252 + x293 + x306 + x314 + x334 + x351 + x407 + x409 + x410
      + x430 + x433 + x435 + x451 + x469 + x486 + x513 + x519 + x531 + x535
      + x536 + x560 + x567 + x578 + x590 + x603 + x604 + x605 + x606 + x608
      + x609  = 1
 c33: x33 + x66 + x67 + x70 + x71 + x72 + x73 + x77 + x78 + x83 + x90 + x96
      + x98 + x101 + x102 + x106 + x114 + x121 + x126 + x129 + x137 + x155
      + x157 + x205 + x214 + x220 + x238 + x263 + x275 + x282 + x287 + x288
      + x290 + x296 + x297 + x299 + x307 + x319 + x326 + x327 + x328 + x341
      + x350 + x371 + x373 + x379 + x392 + x433 + x535 + x552 + x554 + x559
      + x566 + x577 + x579 + x584 + x591 + x654 + x672 + x673 + x674 + x675
      + x676 + x677  = 1
 c34: x34 + x66 + x67 + x68 + x69 + x70 + x71 + x72 + x75 + x87 + x93 + x109
      + x110 + x113 + x114 + x118 + x126 + x128 + x135 + x147 + x156 + x173
      + x232 + x259 + x271 + x278 + x335 + x339 + x427 + x428 + x485 + x487
      + x500 + x505 + x511 + x531 + x545 + x629 + x630 + x631 + x644 + x651
       = 1
 c35: x35 + x62 + x63 + x65 + x66 + x68 + x69 + x70 + x71 + x74 + x76 + x80
      + x83 + x84 + x87 + x89 + x90 + x96 + x99 + x104 + x105 + x106 + x116
      + x122 + x144 + x147 + x154 + x161 + x164 + x166 + x174 + x215 + x222
      + x228 + x229 + x230 + x237 + x238 + x246 + x247 + x264 + x278 + x281
      + x290 + x293 + x324 + x415 + x425 + x443 + x446 + x454 + x476 + x491
      + x494 + x496 + x497 + x498 + x504 + x506 + x507 + x519 + x522 + x534
      + x563 + x565 + x614 + x668  = 1
 c36: x36 + x58 + x59 + x60 + x61 + x62 + x63 + x64 + x65 + x68 + x69 + x71
      + x77 + x80 + x84 + x86 + x95 + x110 + x112 + x138 + x139 + x140 + x147
      + x164 + x167 + x174 + x208 + x211 + x215 + x240
      + 3.2673863614706e-13 x267 + x269 + x271 + x279 + x288 + x321 + x326
      + x346 + x357 + x359 + x395 + x421 + x429 + x462 + x475 + x476 + x486
      + x498 + x506 + x529 + x549 + x555 + x596 + x648 + x660 + x661 + x662
      + x663 + x667 + x669 + x672 + x677  = 1
 c37: x37 + x51 + x52 + x53 + x54 + x55 + x56 + x57 + x58 + x59 + x61 + x64
      + x65 + x68 + x72 + x74 + x78 + x80 + x84 + x87 + x89 + x90 + x96 + x97
      + x101 + x103 + x108 + x114 + x125 + x152 + x159 + x163 + x165 + x195
      + x211 + x216 + x225 + x228 + x239 + x247 + x253 + x263 + x266
      + 3.2673863614706e-13 x267 + x268 + x269 + x274 + x280 + x313 + x329
      + x350 + x355 + x358 + x367 + x378 + x382 + x386 + x395 + x399 + x400
      + x423 + x427 + x443 + x460 + x461 + x489 + x493 + x497 + x500 + x524
      + x600 + x664 + x665  = 1
 c38: x38 + x51 + x52 + x53 + x54 + x55 + x56 + x57 + x58 + x59 + x60 + x64
      + x65 + x69 + x71 + x74 + x78 + x85 + x89 + x92 + x93 + x102 + x113
      + x116 + x120 + x139 + x143 + x194 + x198 + x223 + x237 + x264 + x272
      + x296 + x300 + x302 + x329 + x340 + x350 + x360 + x362 + x363 + x372
      + x378 + x381 + x386 + x389 + x390 + x395 + x397 + x416 + x422 + x431
      + x444 + x451 + x454 + 4.44089209850063e-16 x461 + x462 + x500 + x504
      + x555 + x557 + x567 + x578 + x582 + x586 + x599 + x600 + x601 + x602
      + x649 + x653 + x673 + x676  = 1
 c39: x39 + x51 + x52 + x53 + x54 + x55 + x56 + x57 + x58 + x59 + x60 + x61
      + x63 + x64 + x66 + x68 + x73 + x79 + x83 + x86 + x89 + x92 + x93 + x96
      + x98 + x103 + x104 + x110 + x113 + x118 + x121 + x131 + x144 + x146
      + x165 + x169 + x189 + x191 + x194 + x220 + x229 + x247 + x254 + x255
      + x259 + x286 + x307 + x311 + x317 + x335 + x359 + x394 + x423 + x445
      + x482 + x533 + x599 + x600 + x601 + x604 + x612 + x613 + x615 + x616
      + x617 + x618 + x643 + x646 + x647 + x674 + x675  = 1
 c40: x40 + x51 + x52 + x53 + x54 + x55 + x56 + x57 + x58 + x59 + x60 + x61
      + x62 + x66 + x67 + x74 + x76 + x81 + x84 + x86 + x87 + x94 + x101 + x105
      + x106 + x107 + x113 + x118 + x126 + x133 + x160 + x173 + x189 + x201
      + x205 + x208 + x215 + x217 + x244 + x268 + x279 + x282 + x291 + x315
      + x353 + x355 + x356 + x410 + 1.00000000001771 x488 + x516 + x525 + x551
      + x574 + x612 + x613 + x642 + x643 + x644 + x645 + x646 + x653 + x654
       = 1
 c41: x41 + x51 + x52 + x53 + x54 + x55 + x56 + x57 + x58 + x59 + x60 + x61
      + x62 + x63 + x65 + x70 + x76 + x80 + x82 + x90 + x92 + x94 + x97 + x108
      + x110 + x122 + x127 + x130 + x131 + x138 + x162 + x172 + x176 + x181
      + x186 + x192 + x209 + x239 + x268 + x271 + x291 + x320 + x326 + x330
      + x331 + x334 + x347 + x352 + x377 + x389 + x397 + x398 + x399 + x402
      + x418 + x434 + x435 + x451 + x456 + x467 + x469 + x474 + x477 + x479
      + x546 + x569 + x581 + x593 + x615 + x641 + x642 + x643 + x644 + x645
      + x646  = 1
 c42: x42 + x51 + x52 + x53 + x54 + x55 + x56 + x57 + x58 + x59 + x60 + x61
      + x62 + x63 + x64 + x67 + x69 + x70 + x74 + x77 + x83 + x85 + x87 + x97
      + x98 + x103 + x109 + x117 + x122 + x124 + x130 + x132 + x141 + x145
      + x168 + x172 + x173 + x175 + x177 + x180 + x183 + x184 + x185 + x226
      + x229 + x231 + x239 + x241 + x252 + x260 + x266 + x273 + x283 + x305
      + x317 + x340 + x389 + x396 + x398 + x401 + x407 + x408 + x424 + x426
      + x436 + x439 + x458 + x459 + x472 + x473 + x492 + x501 + x503 + x514
      + x550 + x553 + x578 + x597 + x603 + x604 + x605 + x606 + x607 + x608
      + x609 + x629 + x630 + x647 + x659  = 1
 c43: x43 + x51 + x52 + x53 + x54 + x55 + x56 + x57 + x58 + x62 + x63 + x64
      + x65 + x69 + x72 + x73 + x79 + x80 + x83 + x84 + x88 + x96 + x109 + x111
      + x116 + x126 + x127 + x132 + x134 + x137 + x153 + x165 + x179 + x188
      + x197 + x206 + x208 + x212 + x227 + x231 + x235 + x279 + x295 + x309
      + x322 + x332 + x344 + x361 + x404 + x412 + x457 + x462 + x470 + x471
      + x490 + x499 + x517 + x526 + x528 + x532 + x543 + x544 + x561 + x571
      + x592 + x594 + x614 + x616 + x617 + x650  = 1
 c44: x44 + x51 + x52 + x53 + x54 + x55 + x56 + x57 + x59 + x61 + x62 + x63
      + x64 + x65 + x66 + x69 + x72 + x73 + x79 + x80 + x83 + x84 + x89 + x90
      + x91 + x95 + x97 + x99 + x113 + x116 + x117 + x123 + x124 + x126 + x140
      + x160 + x165 + x166 + x170 + x175 + x176 + x194 + x211 + x221 + x222
      + x242 + x243 + x251 + x276 + x292 + x303 + x310 + x312 + x333 + x337
      + x346 + x364 + x374 + x383 + x384 + x385 + x387 + x391 + x406 + x423
      + x430 + x432 + x437 + x445 + x448 + x449 + x450 + x454 + x466 + x482
      + x497 + x505 + x515 + x519 + x548 + x549 + x562 + x572 + x575 + x576
      + x583 + x588 + x612 + x613 + x619 + x629 + x639  = 1
 c45: x45 + x51 + x52 + x53 + x54 + x55 + x56 + x60 + x61 + x62 + x63 + x64
      + x65 + x67 + x68 + x69 + x71 + x73 + x76 + x81 + x82 + x91 + x95 + x104
      + x107 + x109 + x111 + x119 + x121 + x128 + x136 + x149 + x166 + x178
      + x199 + x208 + x210 + x212 + x214 + x216 + x218 + x253 + x254 + x255
      + x257 + x264 + x281 + x284 + x292 + x302 + x303 + x316 + x318 + x323
      + x327 + x329 + x338 + x366 + x376 + x378 + x400 + x403 + x407 + x422
      + x432 + x440 + x450 + x469 + x507 + x510 + x512 + x520 + x521 + x522
      + x529 + x530 + x534 + x536 + x568 + x580 + x585 + x587 + x595 + x598
      + x603 + x610 + x611 + x617 + x620 + x627 + x648 + x660  = 1
 c46: x46 + x51 + x52 + x53 + x54 + x55 + x60 + x61 + x62 + x63 + x64 + x65
      + x66 + x68 + x69 + x72 + x74 + x76 + x80 + x81 + x83 + x86 + x92 + x94
      + x97 + x100 + x103 + x109 + x113 + x114 + x115 + x119 + x121 + x122
      + x127 + x150 + x164 + x165 + x170 + x175 + x177 + x184 + x198 + x199
      + x206 + x214 + x224 + x255 + x258 + x264 + x270 + x289 + x308 + x343
      + x347 + x348 + x365 + x385 + x401 + x402 + x403 + x448 + x473 + x474
      + x479 + x495 + x509 + x520 + x521 + x527 + x535 + x542 + x543 + x544
      + x553 + x556 + x562 + x564 + x588 + x589 + x603 + x604 + x605 + x606
      + x621 + x622 + x637 + x664 + x673  = 1
 c47: x47 + x51 + x52 + x53 + x54 + x60 + x61 + x62 + x63 + x64 + x65 + x66
      + x67 + x71 + x75 + x89 + x90 + x92 + x94 + x104 + x105 + x107 + x114
      + x116 + x117 + x124 + x129 + x134 + x136 + x141 + x150 + x159 + x172
      + x174 + x188 + x202 + x210 + x213 + x241 + x304 + x312 + x368 + x383
      + x388 + x411 + x413 + x414 + x417 + x449 + x456 + x459 + x501 + x509
      + x510 + x512 + x517 + x518 + x523 + x527 + x541 + x542 + x556 + x569
      + x570 + x583 + x589 + x634  = 1
 c48: x48 + x51 + x52 + x53 + x60 + x61 + x62 + x63 + x64 + x65 + x66 + x67
      + x68 + x72 + x76 + x77 + x79 + x84 + x87 + x89 + x96 + x100 + x101
      + x102 + x110 + x112 + x141 + x144 + x149 + x153 + x155 + x168 + x170
      + x180 + x181 + x184 + x189 + x197 + x202 + x205 + x226 + x233 + x245
      + x268 + x269 + x276 + x277 + x287 + x296 + x311 + x318 + x322 + x328
      + x360 + x364 + x366 + x371 + x372 + x376 + x382 + x391 + x406 + x410
      + x427 + x437 + x439 + x440 + 1.00000000005894 x452 + x455 + x460 + x461
      + x463 + x464 + x465 + x468 + x470 + x476 + x558 + x561 + x575 + x577
      + x581 + x587 + x622 + x625 + x632 + x636 + x650 + x655 + x656 + x661
      + x663 + x664 + x665 + x667  = 1
 c49: x49 + x51 + x52 + x60 + x61 + x63 + x65 + x66 + x67 + x68 + x69 + x73
      + x74 + x77 + x80 + x82 + x89 + x93 + x97 + x98 + x100 + x107 + x114
      + x116 + x118 + x119 + x134 + x138 + x139 + x141 + x145 + x147 + x148
      + x153 + x160 + x163 + x180 + x187 + x191 + x192 + x198 + x208 + x210
      + x214 + x216 + x219 + x221 + x227 + x246 + x258 + x276 + x284 + x286
      + 1.00000000000018 x294 + x300 + x339 + x358 + x359 + x362 + x366 + x367
      + x373 + x374 + x376 + x380 + x381 + x384 + x387 + x390 + x392 + x393
      + x394 + x409 + x416 + 1.00000000005894 x442 + x480 + x498 + x513 + x524
      + x528 + x530 + x532 + x533 + x538 + x539 + x554 + x612 + x613 + x623
      + x636 + x651 + x652 + x653 + x655 + x659 + x661 + x665 + x669 + x670
       = 1
 c50: x50 + x51 + x60 + x62 + x64 + x65 + x66 + x67 + x68 + x69 + x70 + x73
      + x78 + x81 + x84 + x88 + x97 + x101 + x105 + x107 + x117 + x127 + x128
      + x134 + x138 + x139 + x141 + x144 + x148 + x152 + x154 + x164 + x170
      + x177 + x181 + x187 + x190 + x201 + x204 + x228 + x244 + x250 + x251
      + x256 + 1.00000000000048 x265 + x284 + x297 + x325 + x333 + x352 + x354
      + x369 + x370 + x457 + x458 + x466 + x467 + x468 + x472 + x567 + x568
      + x571 + x578 + x579 + x580 + x589 + x609 + x626 + x645 + x646 + x658
      + x665 + x666 + x671 + x672 + x675 + x676  = 1
Bounds
 0 <= x51 <= 1
 0 <= x52 <= 1
 0 <= x53 <= 1
 0 <= x54 <= 1
 0 <= x55 <= 1
 0 <= x56 <= 1
 0 <= x57 <= 1
 0 <= x58 <= 1
 0 <= x59 <= 1
 0 <= x60 <= 1
 0 <= x61 <= 1
 0 <= x62 <= 1
 0 <= x63 <= 1
 0 <= x64 <= 1
 0 <= x65 <= 1
 0 <= x66 <= 1
 0 <= x67 <= 1
 0 <= x68 <= 1
 0 <= x69 <= 1
 0 <= x70 <= 1
 0 <= x71 <= 1
 0 <= x72 <= 1
 0 <= x73 <= 1
 0 <= x74 <= 1
      x75 = 0
 0 <= x76 <= 1
 0 <= x77 <= 1
 0 <= x78 <= 1
 0 <= x79 <= 1
 0 <= x80 <= 1
 0 <= x81 <= 1
 0 <= x82 <= 1
 0 <= x83 <= 1
 0 <= x84 <= 1
 0 <= x85 <= 1
 0 <= x87 <= 1
 0 <= x88 <= 1
 0 <= x89 <= 1
 0 <= x90 <= 1
 0 <= x91 <= 1
 0 <= x92 <= 1
      x93 = 0
 0 <= x94 <= 1
 0 <= x95 <= 1
 0 <= x96 <= 1
 0 <= x97 <= 1
 0 <= x98 <= 1
 0 <= x99 <= 1
 0 <= x100 <= 1
 0 <= x101 <= 1
 0 <= x102 <= 1
 0 <= x103 <= 1
 0 <= x104 <= 1
 0 <= x106 <= 1
      x107 = 0
 0 <= x108 <= 1
 0 <= x109 <= 1
 0 <= x110 <= 1
 0 <= x111 <= 1
 0 <= x112 <= 1
 0 <= x113 <= 1
 0 <= x114 <= 1
 0 <= x115 <= 1
 0 <= x116 <= 1
      x117 = 0
 0 <= x119 <= 1
      x120 = 0
 0 <= x121 <= 1
 0 <= x122 <= 1
 0 <= x123 <= 1
 0 <= x124 <= 1
 0 <= x125 <= 1
 0 <= x127 <= 1
 0 <= x128 <= 1
 0 <= x129 <= 1
 0 <= x130 <= 1
 0 <= x131 <= 1
      x133 = 0
 0 <= x134 <= 1
      x135 = 0
 0 <= x136 <= 1
 0 <= x137 <= 1
 0 <= x138 <= 1
 0 <= x139 <= 1
      x140 = 0
 0 <= x141 <= 1
 0 <= x142 <= 1
 0 <= x143 <= 1
 0 <= x144 <= 1
      x145 = 0
 0 <= x146 <= 1
 0 <= x147 <= 1
 0 <= x148 <= 1
 0 <= x149 <= 1
 0 <= x150 <= 1
 0 <= x152 <= 1
 0 <= x153 <= 1
 0 <= x154 <= 1
 0 <= x155 <= 1
 0 <= x156 <= 1
 0 <= x157 <= 1
      x158 = 0
      x159 = 0
 0 <= x160 <= 1
 0 <= x161 <= 1
 0 <= x162 <= 1
 0 <= x163 <= 1
 0 <= x164 <= 1
 0 <= x165 <= 1
 0 <= x166 <= 1
 0 <= x167 <= 1
 0 <= x168 <= 1
      x169 = 0
      x170 = 0
      x171 = 0
 0 <= x172 <= 1
 0 <= x173 <= 1
 0 <= x174 <= 1
 0 <= x175 <= 1
 0 <= x176 <= 1
 0 <= x177 <= 1
 0 <= x178 <= 1
 0 <= x179 <= 1
 0 <= x180 <= 1
      x181 = 0
      x182 = 0
 0 <= x183 <= 1
 0 <= x184 <= 1
      x185 = 0
 0 <= x186 <= 1
      x187 = 0
      x188 = 0
 0 <= x189 <= 1
      x190 = 0
 0 <= x191 <= 1
 0 <= x192 <= 1
 0 <= x193 <= 1
 0 <= x194 <= 1
 0 <= x195 <= 1
 0 <= x196 <= 1
 0 <= x197 <= 1
 0 <= x198 <= 1
      x199 = 0
      x200 = 0
      x201 = 0
 0 <= x202 <= 1
      x203 = 0
      x204 = 0
 0 <= x205 <= 1
 0 <= x206 <= 1
 0 <= x207 <= 1
 0 <= x208 <= 1
 0 <= x209 <= 1
      x210 = 0
      x211 = 0
      x212 = 0
 0 <= x213 <= 1
 0 <= x214 <= 1
 0 <= x215 <= 1
 0 <= x216 <= 1
      x217 = 0
      x218 = 0
      x219 = 0
 0 <= x220 <= 1
 0 <= x221 <= 1
 0 <= x222 <= 1
 0 <= x223 <= 1
      x224 = 0
 0 <= x225 <= 1
 0 <= x226 <= 1
 0 <= x227 <= 1
 0 <= x228 <= 1
      x231 = 0
 0 <= x232 <= 1
 0 <= x233 <= 1
      x234 = 0
      x235 = 0
 0 <= x236 <= 1
 0 <= x237 <= 1
 0 <= x238 <= 1
 0 <= x239 <= 1
      x240 = 0
      x241 = 0
 0 <= x243 <= 1
      x244 = 0
 0 <= x245 <= 1
      x246 = 0
 0 <= x247 <= 1
 0 <= x248 <= 1
      x249 = 0
 0 <= x250 <= 1
      x251 = 0
      x252 = 0
 0 <= x253 <= 1
 0 <= x254 <= 1
 0 <= x255 <= 1
      x256 = 0
 0 <= x257 <= 1
 0 <= x258 <= 1
      x259 = 0
 0 <= x260 <= 1
      x261 = 0
 0 <= x262 <= 1
 0 <= x263 <= 1
 0 <= x264 <= 1
 0 <= x265 <= 1
      x266 = 0
 0 <= x267 <= 1
 0 <= x268 <= 1
 0 <= x269 <= 1
 0 <= x270 <= 1
 0 <= x271 <= 1
 0 <= x272 <= 1
 0 <= x273 <= 1
      x274 = 0
 0 <= x275 <= 1
 0 <= x276 <= 1
 0 <= x277 <= 1
      x278 = 0
 0 <= x279 <= 1
 0 <= x280 <= 1
 0 <= x281 <= 1
 0 <= x282 <= 1
      x283 = 0
 0 <= x284 <= 1
 0 <= x285 <= 1
 0 <= x286 <= 1
      x287 = 0
 0 <= x288 <= 1
 0 <= x289 <= 1
 0 <= x290 <= 1
 0 <= x291 <= 1
 0 <= x292 <= 1
 0 <= x293 <= 1
      x294 = 0
 0 <= x295 <= 1
 0 <= x296 <= 1
 0 <= x297 <= 1
 0 <= x298 <= 1
 0 <= x299 <= 1
 0 <= x300 <= 1
 0 <= x301 <= 1
 0 <= x302 <= 1
 0 <= x303 <= 1
      x304 = 0
      x305 = 0
      x306 = 0
 0 <= x307 <= 1
      x308 = 0
      x309 = 0
      x310 = 0
 0 <= x311 <= 1
 0 <= x312 <= 1
 0 <= x313 <= 1
 0 <= x314 <= 1
 0 <= x315 <= 1
 0 <= x316 <= 1
 0 <= x317 <= 1
 0 <= x318 <= 1
 0 <= x319 <= 1
 0 <= x320 <= 1
 0 <= x321 <= 1
 0 <= x322 <= 1
 0 <= x323 <= 1
      x324 = 0
      x325 = 0
 0 <= x326 <= 1
 0 <= x327 <= 1
 0 <= x328 <= 1
 0 <= x329 <= 1
 0 <= x330 <= 1
 0 <= x331 <= 1
 0 <= x332 <= 1
 0 <= x333 <= 1
      x334 = 0
      x335 = 0
      x336 = 0
 0 <= x337 <= 1
 0 <= x338 <= 1
 0 <= x339 <= 1
      x340 = 0
 0 <= x341 <= 1
 0 <= x342 <= 1
      x343 = 0
 0 <= x344 <= 1
      x345 = 0
      x346 = 0
      x347 = 0
 0 <= x348 <= 1
 0 <= x349 <= 1
 0 <= x350 <= 1
      x351 = 0
 0 <= x352 <= 1
      x353 = 0
      x354 = 0
 0 <= x355 <= 1
 0 <= x356 <= 1
      x357 = 0
 0 <= x358 <= 1
      x359 = 0
 0 <= x360 <= 1
      x361 = 0
 0 <= x362 <= 1
 0 <= x363 <= 1
 0 <= x364 <= 1
 0 <= x365 <= 1
 0 <= x366 <= 1
 0 <= x367 <= 1
 0 <= x368 <= 1
      x369 = 0
 0 <= x370 <= 1
 0 <= x371 <= 1
 0 <= x372 <= 1
 0 <= x373 <= 1
 0 <= x374 <= 1
      x375 = 0
 0 <= x376 <= 1
      x377 = 0
 0 <= x378 <= 1
      x379 = 0
 0 <= x380 <= 1
 0 <= x381 <= 1
 0 <= x382 <= 1
 0 <= x383 <= 1
 0 <= x384 <= 1
 0 <= x385 <= 1
 0 <= x386 <= 1
 0 <= x387 <= 1
      x388 = 0
 0 <= x389 <= 1
 0 <= x390 <= 1
 0 <= x391 <= 1
 0 <= x392 <= 1
      x393 = 0
 0 <= x394 <= 1
 0 <= x395 <= 1
      x396 = 0
      x397 = 0
      x398 = 0
      x399 = 0
 0 <= x400 <= 1
 0 <= x401 <= 1
 0 <= x402 <= 1
 0 <= x403 <= 1
      x404 = 0
      x405 = 0
 0 <= x406 <= 1
 0 <= x407 <= 1
 0 <= x408 <= 1
 0 <= x409 <= 1
 0 <= x410 <= 1
      x411 = 0
 0 <= x412 <= 1
      x413 = 0
 0 <= x414 <= 1
      x415 = 0
 0 <= x416 <= 1
      x417 = 0
 0 <= x418 <= 1
      x419 = 0
 0 <= x420 <= 1
      x421 = 0
 0 <= x422 <= 1
 0 <= x423 <= 1
 0 <= x424 <= 1
 0 <= x425 <= 1
 0 <= x426 <= 1
 0 <= x427 <= 1
 0 <= x428 <= 1
      x429 = 0
 0 <= x430 <= 1
      x431 = 0
      x432 = 0
      x433 = 0
 0 <= x434 <= 1
 0 <= x435 <= 1
 0 <= x436 <= 1
 0 <= x437 <= 1
 0 <= x438 <= 1
 0 <= x439 <= 1
 0 <= x440 <= 1
      x441 = 0
      x442 = 0
 0 <= x443 <= 1
      x444 = 0
 0 <= x445 <= 1
      x446 = 0
      x447 = 0
      x448 = 0
      x449 = 0
 0 <= x450 <= 1
 0 <= x451 <= 1
      x452 = 0
 0 <= x453 <= 1
 0 <= x454 <= 1
      x455 = 0
      x456 = 0
 0 <= x457 <= 1
      x458 = 0
 0 <= x459 <= 1
 0 <= x460 <= 1
 0 <= x461 <= 1
      x462 = 0
 0 <= x463 <= 1
 0 <= x464 <= 1
      x465 = 0
 0 <= x466 <= 1
 0 <= x467 <= 1
 0 <= x468 <= 1
 0 <= x469 <= 1
 0 <= x470 <= 1
 0 <= x471 <= 1
 0 <= x472 <= 1
 0 <= x473 <= 1
      x474 = 0
      x475 = 0
 0 <= x476 <= 1
      x477 = 0
 0 <= x478 <= 1
 0 <= x479 <= 1
 0 <= x480 <= 1
 0 <= x481 <= 1
 0 <= x482 <= 1
 0 <= x483 <= 1
 0 <= x484 <= 1
 0 <= x485 <= 1
      x486 = 0
 0 <= x487 <= 1
      x488 = 0
      x489 = 0
 0 <= x490 <= 1
 0 <= x491 <= 1
 0 <= x492 <= 1
 0 <= x493 <= 1
 0 <= x494 <= 1
      x495 = 0
 0 <= x496 <= 1
 0 <= x497 <= 1
 0 <= x498 <= 1
 0 <= x499 <= 1
 0 <= x500 <= 1
 0 <= x501 <= 1
 0 <= x502 <= 1
 0 <= x503 <= 1
 0 <= x504 <= 1
      x505 = 0
 0 <= x506 <= 1
      x507 = 0
 0 <= x508 <= 1
      x509 = 0
 0 <= x510 <= 1
      x511 = 0
 0 <= x512 <= 1
 0 <= x513 <= 1
 0 <= x514 <= 1
      x515 = 0
 0 <= x516 <= 1
      x517 = 0
      x518 = 0
 0 <= x519 <= 1
 0 <= x520 <= 1
 0 <= x521 <= 1
 0 <= x522 <= 1
 0 <= x523 <= 1
 0 <= x524 <= 1
      x525 = 0
 0 <= x526 <= 1
 0 <= x527 <= 1
 0 <= x528 <= 1
 0 <= x529 <= 1
 0 <= x530 <= 1
      x531 = 0
 0 <= x532 <= 1
 0 <= x533 <= 1
 0 <= x534 <= 1
 0 <= x535 <= 1
 0 <= x536 <= 1
 0 <= x537 <= 1
 0 <= x538 <= 1
      x539 = 0
      x540 = 0
 0 <= x541 <= 1
 0 <= x542 <= 1
 0 <= x543 <= 1
 0 <= x544 <= 1
      x545 = 0
      x546 = 0
      x547 = 0
      x548 = 0
 0 <= x549 <= 1
 0 <= x550 <= 1
 0 <= x551 <= 1
 0 <= x552 <= 1
 0 <= x553 <= 1
 0 <= x554 <= 1
      x555 = 0
 0 <= x556 <= 1
      x557 = 0
 0 <= x558 <= 1
 0 <= x559 <= 1
 0 <= x560 <= 1
      x561 = 0
      x562 = 0
 0 <= x563 <= 1
 0 <= x564 <= 1
 0 <= x565 <= 1
 0 <= x566 <= 1
 0 <= x567 <= 1
      x568 = 0
 0 <= x569 <= 1
 0 <= x570 <= 1
      x571 = 0
 0 <= x572 <= 1
      x573 = 0
      x574 = 0
 0 <= x575 <= 1
 0 <= x576 <= 1
 0 <= x577 <= 1
 0 <= x578 <= 1
      x579 = 0
 0 <= x580 <= 1
 0 <= x581 <= 1
 0 <= x582 <= 1
      x583 = 0
      x584 = 0
 0 <= x585 <= 1
      x586 = 0
 0 <= x587 <= 1
 0 <= x588 <= 1
 0 <= x589 <= 1
 0 <= x590 <= 1
      x591 = 0
 0 <= x592 <= 1
      x593 = 0
 0 <= x594 <= 1
 0 <= x596 <= 1
 0 <= x597 <= 1
 0 <= x598 <= 1
 0 <= x599 <= 1
 0 <= x600 <= 1
 0 <= x601 <= 1
 0 <= x602 <= 1
 0 <= x603 <= 1
 0 <= x604 <= 1
 0 <= x605 <= 1
 0 <= x606 <= 1
      x607 = 0
 0 <= x608 <= 1
 0 <= x609 <= 1
 0 <= x610 <= 1
 0 <= x611 <= 1
 0 <= x612 <= 1
 0 <= x613 <= 1
 0 <= x614 <= 1
 0 <= x615 <= 1
 0 <= x616 <= 1
 0 <= x617 <= 1
 0 <= x618 <= 1
 0 <= x619 <= 1
 0 <= x620 <= 1
 0 <= x621 <= 1
 0 <= x622 <= 1
 0 <= x623 <= 1
 0 <= x624 <= 1
 0 <= x625 <= 1
 0 <= x626 <= 1
      x627 = 0
      x628 = 0
      x629 = 0
      x630 = 0
      x631 = 0
 0 <= x632 <= 1
 0 <= x633 <= 1
 0 <= x634 <= 1
 0 <= x635 <= 1
 0 <= x636 <= 1
 0 <= x637 <= 1
 0 <= x638 <= 1
 0 <= x639 <= 1
 0 <= x640 <= 1
      x641 = 0
 0 <= x642 <= 1
 0 <= x643 <= 1
 0 <= x644 <= 1
 0 <= x645 <= 1
 0 <= x646 <= 1
 0 <= x647 <= 1
 0 <= x648 <= 1
 0 <= x649 <= 1
 0 <= x650 <= 1
      x651 = 0
 0 <= x652 <= 1
 0 <= x654 <= 1
 0 <= x655 <= 1
 0 <= x656 <= 1
 0 <= x657 <= 1
 0 <= x658 <= 1
      x659 = 0
 0 <= x660 <= 1
 0 <= x661 <= 1
 0 <= x662 <= 1
 0 <= x663 <= 1
 0 <= x664 <= 1
 0 <= x665 <= 1
 0 <= x666 <= 1
 0 <= x667 <= 1
 0 <= x668 <= 1
 0 <= x669 <= 1
End
